p cnf 102 248
a 2 3 4 5 9 14 16 17 21 23 26 27 0
e 1 6 7 8 10 11 12 13 15 18 19 20 22 24 25 28 29 30 31 32 33 34 35 36 37 38 39 40 41 42 43 44 45 46 47 48 49 50 51 52 53 54 55 56 57 58 59 60 61 62 63 64 65 66 67 68 69 70 71 72 73 74 75 76 77 78 79 80 81 82 83 84 85 86 87 88 89 90 91 92 93 94 95 96 97 98 99 100 101 102 0
1 0
4 -6 0
5 -6 0
-4 -5 6 0
4 -7 0
-5 -7 0
-4 5 7 0
4 8 0
-6 8 0
-7 8 0
-4 6 7 -8 0
-9 10 0
9 10 0
3 -11 0
8 -11 0
10 -11 0
-3 -8 -10 11 0
-3 -12 0
8 -12 0
3 -8 12 0
-11 13 0
-12 13 0
11 12 -13 0
-14 15 0
14 15 0
-17 18 0
17 18 0
16 -19 0
18 -19 0
-16 -18 19 0
16 20 0
-19 20 0
-16 19 -20 0
2 -22 0
13 -22 0
15 -22 0
20 -22 0
21 -22 0
-2 -13 -15 -20 -21 22 0
-2 -24 0
13 -24 0
15 -24 0
20 -24 0
23 -24 0
2 -13 -15 -20 -23 24 0
-22 25 0
-24 25 0
22 24 -25 0
-26 -28 0
27 -28 0
26 -27 28 0
-26 -29 0
-27 -29 0
26 27 29 0
-26 30 0
-28 30 0
-29 30 0
26 28 29 -30 0
25 -31 0
30 -31 0
-25 -30 31 0
-9 32 0
9 32 0
3 -33 0
32 -33 0
-3 -32 33 0
-33 34 0
3 34 0
33 -3 -34 0
34 -35 0
16 -35 0
18 -35 0
-34 -16 -18 35 0
34 -36 0
-16 -36 0
-34 16 36 0
-35 37 0
-36 37 0
35 36 -37 0
37 -38 0
26 -38 0
-37 -26 38 0
-28 39 0
-29 39 0
28 29 -39 0
37 -40 0
39 -40 0
-37 -39 40 0
-38 41 0
-40 41 0
38 40 -41 0
-9 42 0
9 42 0
3 -43 0
42 -43 0
-3 -42 43 0
-43 44 0
3 44 0
43 -3 -44 0
44 -45 0
16 -45 0
18 -45 0
-44 -16 -18 45 0
44 -46 0
-16 -46 0
-44 16 46 0
-45 47 0
-46 47 0
45 46 -47 0
47 -48 0
26 -48 0
-47 -26 48 0
47 -49 0
39 -49 0
-47 -39 49 0
-48 50 0
-49 50 0
48 49 -50 0
53 -55 0
54 -55 0
-53 -54 55 0
53 -56 0
-54 -56 0
-53 54 56 0
53 57 0
-55 57 0
-56 57 0
-53 55 56 -57 0
-58 59 0
58 59 0
52 -60 0
57 -60 0
59 -60 0
-52 -57 -59 60 0
-52 -61 0
57 -61 0
52 -57 61 0
-60 62 0
-61 62 0
60 61 -62 0
-63 64 0
63 64 0
-66 67 0
66 67 0
65 -68 0
67 -68 0
-65 -67 68 0
65 69 0
-68 69 0
-65 68 -69 0
51 -71 0
62 -71 0
64 -71 0
69 -71 0
70 -71 0
-51 -62 -64 -69 -70 71 0
-51 -73 0
62 -73 0
64 -73 0
69 -73 0
72 -73 0
51 -62 -64 -69 -72 73 0
-71 74 0
-73 74 0
71 73 -74 0
-75 -77 0
76 -77 0
75 -76 77 0
-75 -78 0
-76 -78 0
75 76 78 0
-75 79 0
-77 79 0
-78 79 0
75 77 78 -79 0
74 -80 0
79 -80 0
-74 -79 80 0
-58 81 0
58 81 0
52 -82 0
81 -82 0
-52 -81 82 0
-82 83 0
52 83 0
82 -52 -83 0
83 -84 0
65 -84 0
67 -84 0
-83 -65 -67 84 0
83 -85 0
-65 -85 0
-83 65 85 0
-84 86 0
-85 86 0
84 85 -86 0
86 -87 0
75 -87 0
-86 -75 87 0
-77 88 0
-78 88 0
77 78 -88 0
86 -89 0
88 -89 0
-86 -88 89 0
-87 90 0
-89 90 0
87 89 -90 0
-58 91 0
58 91 0
52 -92 0
91 -92 0
-52 -91 92 0
-92 93 0
52 93 0
92 -52 -93 0
93 -94 0
65 -94 0
67 -94 0
-93 -65 -67 94 0
93 -95 0
-65 -95 0
-93 65 95 0
-94 96 0
-95 96 0
94 95 -96 0
96 -97 0
75 -97 0
-96 -75 97 0
96 -98 0
88 -98 0
-96 -88 98 0
-97 99 0
-98 99 0
97 98 -99 0
-90 -41 -100 0
90 41 -100 0
-90 41 100 0
90 -41 100 0
-99 -50 -101 0
99 50 -101 0
-99 50 101 0
99 -50 101 0
-100 -102 0
-101 -102 0
80 -102 0
100 101 -80 102 0
-31 102 0
